(set-logic HORN)
(declare-fun inv ((_ BitVec 8) (_ BitVec 8) (_ BitVec 8) (_ BitVec 8) (_ BitVec 8) ) Bool)
(assert (forall ((x (_ BitVec 8)) (y (_ BitVec 8)) (i (_ BitVec 8)) (j (_ BitVec 8)) (turn (_ BitVec 8))) 
       (=> ( and ( = x (_ bv0 8) ) ( = y (_ bv0 8) ) ( = i (_ bv0 8) ) ( = j (_ bv0 8) ) ( = turn (_ bv0 8) ) ) (inv x y i j turn))))
(assert (forall ((x (_ BitVec 8)) (y (_ BitVec 8)) (i (_ BitVec 8)) (j (_ BitVec 8)) (turn (_ BitVec 8)) (x! (_ BitVec 8)) (y! (_ BitVec 8)) (i! (_ BitVec 8)) (j! (_ BitVec 8)) (turn! (_ BitVec 8))) 
       (=> (and (inv x y i j turn) ( or ( and ( = turn (_ bv0 8) ) ( = x! x ) ( = y! y ) ( = i! i ) ( = j! j ) ( = turn! (_ bv1 8) ) ) ( and ( = turn (_ bv0 8) ) ( = x! x ) ( = y! y ) ( = i! i ) ( = j! j ) ( = turn! (_ bv2 8) ) ) ( and ( = turn (_ bv1 8) ) ( = x y ) ( = x! x ) ( = y! y ) ( = i! ( bvadd i (_ bv1 8) ) ) ( = j! j ) ( = turn! (_ bv1 8) ) ) ( and ( = turn (_ bv1 8) ) ( = x y ) ( = x! x ) ( = y! y ) ( = i! ( bvadd i (_ bv1 8) ) ) ( = j! j ) ( = turn! (_ bv2 8) ) ) ( and ( = turn (_ bv1 8) ) ( not ( = x y ) ) ( = x! x ) ( = y! y ) ( = i! i ) ( = j! ( bvadd j (_ bv1 8) ) ) ( = turn! (_ bv1 8) ) ) ( and ( = turn (_ bv1 8) ) ( not ( = x y ) ) ( = x! x ) ( = y! y ) ( = i! i ) ( = j! ( bvadd j (_ bv1 8) ) ) ( = turn! (_ bv2 8) ) ) ( and ( = turn (_ bv2 8) ) ( bvuge i j ) ( = x! ( bvadd x (_ bv1 8) ) ) ( = y! ( bvadd y (_ bv1 8) ) ) ( = i! i ) ( = j! j ) ( = turn! (_ bv0 8) ) ) ( and ( = turn (_ bv2 8) ) ( bvult i j ) ( = x! x ) ( = y! ( bvadd y (_ bv1 8) ) ) ( = i! i ) ( = j! j ) ( = turn! (_ bv0 8) ) ) )) (inv x! y! i! j! turn!))))
(assert (forall ((x (_ BitVec 8)) (y (_ BitVec 8)) (i (_ BitVec 8)) (j (_ BitVec 8)) (turn (_ BitVec 8))) 
       (=> (inv x y i j turn) ( bvuge i j ))))
(check-sat)
